(set-logic QF_S)
(set-option :parse-transducers true)
(set-option :produce-models true)
(define-fun-rec toLower ((x String) (y String)) Bool
   (or (and (= x "") (= y ""))
       (and (not (= x "")) (not (= y ""))
           (= (char.code (str.head y))
               (ite (and (<= 65 (char.code (str.head x)))
                       (<= (char.code (str.head x)) 90))
                   (+ (char.code (str.head x)) 32)
                   (char.code (str.head x))))
           (toLower (str.tail x) (str.tail y))))
)
(declare-fun sym5050 () String)
(assert (<= (str.len sym5050) 1))
(declare-fun sym205 () String)
(assert (<= (str.len sym205) 1))
(declare-fun sym547 () String)
(assert (<= (str.len sym547) 1))
(declare-fun sym1669 () String)
(assert (<= (str.len sym1669) 1))
(declare-fun sym2318 () String)
(assert (<= (str.len sym2318) 1))
(declare-fun sym1886 () String)
(assert (<= (str.len sym1886) 1))
(declare-fun sym1028 () String)
(assert (<= (str.len sym1028) 1))
(declare-fun sym3789 () String)
(assert (<= (str.len sym3789) 1))
(declare-fun sym4211 () String)
(assert (<= (str.len sym4211) 1))
(declare-fun sym5463 () String)
(assert (<= (str.len sym5463) 1))
(declare-fun sym161 () String)
(assert (<= (str.len sym161) 1))
(declare-fun sym812 () String)
(assert (<= (str.len sym812) 1))
(declare-fun sym2726 () String)
(assert (<= (str.len sym2726) 1))
(declare-fun sym1237 () String)
(assert (<= (str.len sym1237) 1))
(declare-fun sym2943 () String)
(assert (<= (str.len sym2943) 1))
(declare-fun sym4427 () String)
(assert (<= (str.len sym4427) 1))
(declare-fun sym4844 () String)
(assert (<= (str.len sym4844) 1))
(declare-fun sym3577 () String)
(assert (<= (str.len sym3577) 1))
(declare-fun sym1453 () String)
(assert (<= (str.len sym1453) 1))
(declare-fun sym2520 () String)
(assert (<= (str.len sym2520) 1))
(declare-fun sym2102 () String)
(assert (<= (str.len sym2102) 1))
(declare-fun sym4005 () String)
(assert (<= (str.len sym4005) 1))
(declare-fun sym3159 () String)
(assert (<= (str.len sym3159) 1))
(declare-fun sym4642 () String)
(assert (<= (str.len sym4642) 1))
(declare-fun sym5257 () String)
(assert (<= (str.len sym5257) 1))
(declare-fun sym3375 () String)
(assert (<= (str.len sym3375) 1))
(declare-fun L27  () String)
(declare-fun L49  () String)
(declare-fun L17  () String)
(declare-fun L29  () String)
(declare-fun L19  () String)
(declare-fun L13  () String)
(declare-fun L35  () String)
(declare-fun L9  () String)
(declare-fun L37  () String)
(declare-fun L7  () String)
(declare-fun L31  () String)
(declare-fun L5  () String)
(declare-fun L3  () String)
(declare-fun L1  () String)
(declare-fun L12  () String)
(declare-fun L34  () String)
(declare-fun L14  () String)
(declare-fun L30  () String)
(declare-fun L74  () String)
(declare-fun L8  () String)
(declare-fun L32  () String)
(declare-fun L6  () String)
(declare-fun L4  () String)
(declare-fun L2  () String)
(declare-fun L0  () String)
(define-fun Alphabet () RegLan 
	(re.* (re.union (str.to_re "A") (str.to_re "B") (str.to_re "C") (str.to_re "D") (str.to_re "E") (str.to_re "F") (str.to_re "G") (str.to_re "H") (str.to_re "I") (str.to_re "J") (str.to_re "K") (str.to_re "L") (str.to_re "M") (str.to_re "N") (str.to_re "O") (str.to_re "P") (str.to_re "Q") (str.to_re "R") (str.to_re "S") (str.to_re "T") (str.to_re "U") (str.to_re "V") (str.to_re "W") (str.to_re "X") (str.to_re "Y") (str.to_re "Z") (str.to_re "a") (str.to_re "b") (str.to_re "c") (str.to_re "d") (str.to_re "e") (str.to_re "f") (str.to_re "g") (str.to_re "h") (str.to_re "i") (str.to_re "j") (str.to_re "k") (str.to_re "l") (str.to_re "m") (str.to_re "n") (str.to_re "o") (str.to_re "p") (str.to_re "q") (str.to_re "r") (str.to_re "s") (str.to_re "t") (str.to_re "u") (str.to_re "v") (str.to_re "w") (str.to_re "x") (str.to_re "y") (str.to_re "z") ))
)
(assert (toLower (str.substr sym4005  0 1) L0 ))
(assert (toLower (str.substr sym3577  0 1) L2 ))
(assert (toLower (str.substr sym4642  0 1) L4 ))
(assert (toLower (str.substr sym5050  0 1) L6 ))
(assert (toLower (str.substr sym3159  0 1) L32 ))
(assert (toLower (str.substr sym2520  0 1) L8 ))
(assert (toLower (str.substr sym205  0 1) L74 ))
(assert (toLower (str.substr sym5463  0 1) L30 ))
(assert (toLower (str.substr sym1028  0 1) L14 ))
(assert (toLower (str.substr sym547  0 1) L34 ))
(assert (toLower (str.substr sym2726  0 1) L12 ))
(assert (toLower (str.substr sym5257  0 1) L1 ))
(assert (toLower (str.substr sym1669  0 1) L3 ))
(assert (toLower (str.substr sym1237  0 1) L5 ))
(assert (toLower (str.substr sym812  0 1) L31 ))
(assert (toLower (str.substr sym1453  0 1) L7 ))
(assert (toLower (str.substr sym2318  0 1) L37 ))
(assert (toLower (str.substr sym2943  0 1) L9 ))
(assert (toLower (str.substr sym3375  0 1) L35 ))
(assert (toLower (str.substr sym3789  0 1) L13 ))
(assert (toLower (str.substr sym4427  0 1) L19 ))
(assert (toLower (str.substr sym2102  0 1) L29 ))
(assert (toLower (str.substr sym4844  0 1) L17 ))
(assert (toLower (str.substr sym4211  0 1) L49 ))
(assert (toLower (str.substr sym1886  0 1) L27 ))

(assert (str.in_re sym3375 Alphabet))
(assert (str.in_re sym5257 Alphabet))
(assert (str.in_re sym4642 Alphabet))
(assert (str.in_re sym3159 Alphabet))
(assert (str.in_re sym4005 Alphabet))
(assert (str.in_re sym2102 Alphabet))
(assert (str.in_re sym2520 Alphabet))
(assert (str.in_re sym1453 Alphabet))
(assert (str.in_re sym3577 Alphabet))
(assert (str.in_re sym4844 Alphabet))
(assert (str.in_re sym4427 Alphabet))
(assert (str.in_re sym2943 Alphabet))
(assert (str.in_re sym1237 Alphabet))
(assert (str.in_re sym2726 Alphabet))
(assert (str.in_re sym812 Alphabet))
(assert (str.in_re sym161 Alphabet))
(assert (str.in_re sym5463 Alphabet))
(assert (str.in_re sym4211 Alphabet))
(assert (str.in_re sym3789 Alphabet))
(assert (str.in_re sym1028 Alphabet))
(assert (str.in_re sym1886 Alphabet))
(assert (str.in_re sym2318 Alphabet))
(assert (str.in_re sym1669 Alphabet))
(assert (str.in_re sym547 Alphabet))
(assert (str.in_re sym205 Alphabet))
(assert (str.in_re sym5050 Alphabet))(assert (<= 1 (str.len sym4427 )))
(assert (<= 1 (str.len sym5050 )))
(assert (<= 1 (str.len sym4211 )))
(assert (<= 1 (str.len sym1028 )))
(assert (<= 1 (str.len sym4005 )))
(assert (<= 1 (str.len sym1886 )))
(assert (<= 1 (str.len sym812 )))
(assert (<= 1 (str.len sym205 )))
(assert (<= 1 (str.len sym3159 )))
(assert (<= 1 (str.len sym2943 )))
(assert (<= 1 (str.len sym5463 )))
(assert (<= 1 (str.len sym5257 )))
(assert (<= 1 (str.len sym1453 )))
(assert (<= 1 (str.len sym3375 )))
(assert (<= 1 (str.len sym1237 )))
(assert (<= 1 (str.len sym4642 )))
(assert (<= 1 (str.len sym3577 )))
(assert (<= 1 (str.len sym3789 )))
(assert (<= 1 (str.len sym1669 )))
(assert (<= 1 (str.len sym547 )))
(assert (<= 1 (str.len sym2520 )))
(assert (<= 1 (str.len sym2102 )))
(assert (<= 1 (str.len sym4844 )))
(assert (<= 1 (str.len sym2726 )))
(assert (<= 1 (str.len sym2318 )))

(assert (not (= L0 "p" )))
(assert (not (= "" sym5257 )))
(assert (not (= L1 "k" )))
(assert (not (= "" sym3577 )))
(assert (not (= L2 "r" )))
(assert (not (= "" sym1886 )))
(assert (not (= "" sym4844 )))
(assert (not (= L3 "q" )))
(assert (not (= L4 "q" )))
(assert (not (= L5 "q" )))
(assert (not (= "" sym4005 )))
(assert (not (= L6 "k" )))
(assert (not (= L7 "q" )))
(assert (= L8 "g" ))
(assert (= L9 "g" ))
(assert (= L3 "g" ))
(assert (not (= L9 "k" )))
(assert (not (= L12 "k" )))
(assert (= L13 "g" ))
(assert (not (= "" sym2520 )))
(assert (not (= L14 "q" )))
(assert (not (= L13 "q" )))
(assert (= L4 "g" ))
(assert (not (= L17 "q" )))
(assert (not (= L6 "q" )))
(assert (= L19 "h" ))
(assert (= L17 "g" ))
(assert (= L7 "g" ))
(assert (not (= L4 "k" )))
(assert (= L0 "g" ))
(assert (not (= "" "q" )))
(assert (not (= L19 "g" )))
(assert (not (= L19 "k" )))
(assert (not (= L2 "q" )))
(assert (not (= "" sym1237 )))
(assert (= "y" "y" ))
(assert (not (= L27 "p" )))
(assert (not (= "" sym3375 )))
(assert (not (= "" sym4427 )))
(assert (not (= L17 "p" )))
(assert (not (= L29 "q" )))
(assert (not (= L30 "q" )))
(assert (not (= "y" "n" )))
(assert (not (= L31 "p" )))
(assert (= "" "" ))
(assert (not (= L32 "k" )))
(assert (not (= L14 "p" )))
(assert (= L34 "g" ))
(assert (not (= "" sym5463 )))
(assert (not (= L35 "q" )))
(assert (not (= "" sym547 )))
(assert (not (= "" sym2318 )))
(assert (not (= L12 "p" )))
(assert (not (= L37 "p" )))
(assert (not (= L8 "q" )))
(assert (not (= "" sym1453 )))
(assert (not (= "" sym161 )))
(assert (not (= L1 "q" )))
(assert (not (= "" sym1028 )))
(assert (not (= L2 "p" )))
(assert (not (= L13 "p" )))
(assert (not (= L34 "q" )))
(assert (not (= L2 "k" )))
(assert (= L29 "g" ))
(assert (not (= L27 "r" )))
(assert (not (= L12 "q" )))
(assert (not (= "" sym1669 )))
(assert (not (= L5 "k" )))
(assert (not (= L34 "k" )))
(assert (not (= L49 "k" )))
(assert (not (= L0 "q" )))
(assert (not (= L34 "p" )))
(assert (not (= L14 "k" )))
(assert (not (= L1 "p" )))
(assert (not (= L27 "q" )))
(assert (not (= L30 "g" )))
(assert (not (= "" sym2726 )))
(assert (not (= L29 "p" )))
(assert (not (= "" sym2943 )))
(assert (= L5 "g" ))
(assert (not (= L8 "p" )))
(assert (= L12 "h" ))
(assert (not (= L27 "g" )))
(assert (not (= L30 "p" )))
(assert (not (= "" sym5050 )))
(assert (not (= L1 "g" )))
(assert (not (= "" sym205 )))
(assert (not (= "" sym3789 )))
(assert (= L37 "g" ))
(assert (not (= L5 "p" )))
(assert (not (= "" sym2102 )))
(assert (= L35 "g" ))
(assert (= L49 "g" ))
(assert (not (= L31 "q" )))
(assert (not (= L0 "k" )))
(assert (not (= L35 "k" )))
(assert (= L6 "g" ))
(assert (= L31 "g" ))
(assert (not (= L19 "q" )))
(assert (not (= "" "y" )))
(assert (not (= L8 "k" )))
(assert (= L74 "y" ))
(assert (not (= L37 "q" )))
(assert (= L14 "g" ))
(assert (not (= L49 "p" )))
(assert (not (= L1 "r" )))
(assert (not (= L37 "k" )))
(assert (not (= L4 "p" )))
(assert (not (= L7 "p" )))
(assert (= L30 "l" ))
(assert (not (= L32 "q" )))
(assert (not (= L2 "g" )))
(assert (= L2 "l" ))
(assert (not (= "" sym812 )))
(assert (not (= L30 "k" )))
(assert (not (= L9 "q" )))
(assert (not (= L12 "r" )))
(assert (not (= "" sym4211 )))
(assert (not (= L7 "k" )))
(assert (not (= L19 "r" )))
(assert (not (= L32 "p" )))
(assert (not (= L12 "g" )))
(assert (not (= L49 "q" )))
(assert (not (= L6 "p" )))
(assert (not (= "" "y" )))
(assert (not (= L9 "p" )))
(assert (not (= L3 "p" )))
(assert (= L1 "l" ))
(assert (not (= L17 "k" )))
(assert (not (= "" sym3159 )))
(assert (not (= L12 "l" )))
(assert (not (= "" L74 )))
(assert (= L32 "g" ))
(assert (not (= L35 "p" )))
(assert (not (= L31 "k" )))
(assert (not (= L30 "r" )))
(assert (not (= L29 "k" )))
(assert (not (= L19 "l" )))
(assert (not (= L27 "k" )))
(assert (not (= "" sym4642 )))
(assert (not (= L3 "k" )))
(assert (= L27 "l" ))
(assert (not (= L13 "k" )))
(assert (not (= L19 "p" )))
(check-sat)
(get-model)
(exit)
